set VV := 0 1 2 3 4 5 6 7 8 9 10 11 12 13 14 15 ;
set VS := 0 1 2 3 4 5 6 7 8 9 10 11 12 13 14 15 16 17 18 19 20 21 22 23 24 25 26 27 28 29 30 31 32 33 34 35 36 ;
param cv := 
0 22
1 16
2 10
3 23
4 19
5 10
6 25
7 21
8 11
9 15
10 22
11 23
12 21
13 15
14 22
15 19
;
param cs := 
0 28
1 37
2 32
3 37
4 21
5 31
6 23
7 29
8 36
9 25
10 39
11 35
12 37
13 39
14 39
15 29
16 35
17 34
18 33
19 40
20 27
21 22
22 29
23 40
24 26
25 25
26 39
27 39
28 21
29 32
30 21
31 21
32 30
33 39
34 23
35 38
36 29
;
param bv:	 0 1 2 3 4 5 6 7 8 9 10 11 12 13 14 15 := 
		0 0 0 0 0 0 0 0 15 0 0 0 0 0 0 18 0 
		1 0 0 0 0 0 0 17 0 0 0 0 0 15 22 0 0 
		2 0 0 0 0 0 0 0 0 0 0 0 0 0 14 0 15 
		3 0 0 0 0 0 0 0 0 0 0 16 0 0 10 0 0 
		4 0 0 0 0 0 0 0 25 0 0 0 0 0 0 0 22 
		5 0 0 0 0 0 0 0 0 0 0 21 0 17 0 0 0 
		6 0 0 0 0 0 0 0 0 0 0 0 14 0 0 0 0 
		7 0 0 0 0 0 0 0 0 16 0 0 0 0 10 0 0 
		8 0 0 0 0 0 0 0 0 0 10 24 0 0 0 0 0 
		9 0 0 0 0 0 0 0 0 0 0 0 0 0 0 0 23 
		10 0 0 0 0 0 0 0 0 0 0 0 0 0 0 0 0 
		11 0 0 0 0 0 0 0 0 0 0 0 0 0 0 0 0 
		12 0 0 0 0 0 0 0 0 0 0 0 0 0 0 0 0 
		13 0 0 0 0 0 0 0 0 0 0 0 0 0 0 0 0 
		14 0 0 0 0 0 0 0 0 0 0 0 0 0 0 0 0 
		15 0 0 0 0 0 0 0 0 0 0 0 0 0 0 0 0 
;
param bs:	 0 1 2 3 4 5 6 7 8 9 10 11 12 13 14 15 16 17 18 19 20 21 22 23 24 25 26 27 28 29 30 31 32 33 34 35 36 := 
		0 0 0 40 0 0 0 0 0 0 0 0 0 0 0 0 0 0 22 0 0 0 0 0 0 37 21 0 0 0 0 0 0 0 32 0 0 0 
		1 0 0 0 0 0 0 0 0 0 0 0 0 0 0 0 0 0 0 0 28 28 38 0 0 0 0 0 28 0 0 26 0 0 0 0 0 30 
		2 40 0 0 0 40 0 0 0 0 0 0 0 0 0 0 0 0 0 0 35 0 0 0 0 0 0 0 0 0 0 0 0 0 0 0 0 0 
		3 0 0 0 0 0 0 30 22 0 0 0 0 0 0 35 0 0 0 0 0 0 0 0 0 0 0 0 0 0 34 0 0 0 0 0 0 0 
		4 0 0 40 0 0 0 0 0 0 0 0 0 0 0 37 0 0 0 0 0 0 20 25 25 0 0 0 0 0 0 0 0 0 0 0 0 0 
		5 0 0 0 0 0 0 22 0 0 0 0 0 0 0 0 0 23 0 22 0 0 0 0 0 0 0 0 0 0 0 0 0 0 0 0 33 0 
		6 0 0 0 30 0 22 0 0 0 0 0 0 0 0 0 0 26 0 0 0 0 0 0 38 0 0 0 0 0 0 0 0 0 0 0 0 0 
		7 0 0 0 22 0 0 0 0 0 0 0 0 0 0 0 0 0 0 0 0 0 0 0 35 0 0 0 22 0 0 0 0 0 0 0 0 0 
		8 0 0 0 0 0 0 0 0 0 0 0 0 0 0 0 24 0 0 0 0 0 0 0 0 0 0 0 0 0 0 0 0 0 0 33 32 0 
		9 0 0 0 0 0 0 0 0 0 0 37 0 0 0 0 0 0 0 0 0 0 0 0 0 0 0 27 0 0 0 0 0 0 0 0 0 0 
		10 0 0 0 0 0 0 0 0 0 37 0 38 32 0 0 0 0 0 0 0 0 0 0 0 0 0 0 0 0 0 0 0 0 0 0 0 0 
		11 0 0 0 0 0 0 0 0 0 0 38 0 0 0 0 31 0 0 0 0 0 0 0 0 0 0 0 0 0 37 0 0 0 0 0 0 0 
		12 0 0 0 0 0 0 0 0 0 0 32 0 0 0 0 0 0 0 0 0 0 0 0 0 0 0 0 0 0 0 0 0 0 0 0 0 0 
		13 0 0 0 0 0 0 0 0 0 0 0 0 0 0 0 28 0 0 0 0 0 0 0 0 0 0 0 0 0 0 0 0 0 0 0 0 0 
		14 0 0 0 35 37 0 0 0 0 0 0 0 0 0 0 0 0 0 0 0 0 0 0 0 0 0 0 0 0 0 0 25 26 0 0 0 0 
		15 0 0 0 0 0 0 0 0 24 0 0 31 0 28 0 0 0 0 0 0 0 0 0 0 0 0 0 0 0 0 0 0 0 0 0 0 0 
		16 0 0 0 0 0 23 26 0 0 0 0 0 0 0 0 0 0 34 0 0 0 0 0 0 0 0 0 0 0 0 0 0 0 0 0 0 0 
		17 22 0 0 0 0 0 0 0 0 0 0 0 0 0 0 0 34 0 0 0 0 0 0 0 0 0 0 0 0 22 0 0 0 29 0 0 0 
		18 0 0 0 0 0 22 0 0 0 0 0 0 0 0 0 0 0 0 0 36 0 0 0 0 0 0 0 0 0 36 0 0 0 0 0 0 0 
		19 0 28 35 0 0 0 0 0 0 0 0 0 0 0 0 0 0 0 36 0 0 0 0 0 0 35 0 25 0 23 0 0 0 0 0 0 0 
		20 0 28 0 0 0 0 0 0 0 0 0 0 0 0 0 0 0 0 0 0 0 0 0 0 0 0 0 0 0 0 0 0 0 0 0 0 34 
		21 0 38 0 0 20 0 0 0 0 0 0 0 0 0 0 0 0 0 0 0 0 0 0 0 40 0 0 0 0 0 0 0 0 0 0 0 0 
		22 0 0 0 0 25 0 0 0 0 0 0 0 0 0 0 0 0 0 0 0 0 0 0 25 0 0 0 0 0 0 0 0 0 0 0 0 0 
		23 0 0 0 0 25 0 38 35 0 0 0 0 0 0 0 0 0 0 0 0 0 0 25 0 0 24 0 0 0 0 0 0 0 0 0 0 0 
		24 37 0 0 0 0 0 0 0 0 0 0 0 0 0 0 0 0 0 0 0 0 40 0 0 0 0 0 0 0 0 0 22 0 0 0 0 0 
		25 21 0 0 0 0 0 0 0 0 0 0 0 0 0 0 0 0 0 0 35 0 0 0 24 0 0 36 0 0 0 0 0 0 0 0 24 0 
		26 0 0 0 0 0 0 0 0 0 27 0 0 0 0 0 0 0 0 0 0 0 0 0 0 0 36 0 0 0 0 0 0 0 0 0 0 0 
		27 0 28 0 0 0 0 0 22 0 0 0 0 0 0 0 0 0 0 0 25 0 0 0 0 0 0 0 0 0 0 0 0 0 0 0 0 0 
		28 0 0 0 0 0 0 0 0 0 0 0 0 0 0 0 0 0 0 0 0 0 0 0 0 0 0 0 0 0 0 0 0 0 37 0 0 0 
		29 0 0 0 34 0 0 0 0 0 0 0 37 0 0 0 0 0 22 36 23 0 0 0 0 0 0 0 0 0 0 0 0 0 0 0 28 39 
		30 0 26 0 0 0 0 0 0 0 0 0 0 0 0 0 0 0 0 0 0 0 0 0 0 0 0 0 0 0 0 0 0 0 0 0 0 0 
		31 0 0 0 0 0 0 0 0 0 0 0 0 0 0 25 0 0 0 0 0 0 0 0 0 22 0 0 0 0 0 0 0 0 0 0 0 0 
		32 0 0 0 0 0 0 0 0 0 0 0 0 0 0 26 0 0 0 0 0 0 0 0 0 0 0 0 0 0 0 0 0 0 0 0 0 0 
		33 32 0 0 0 0 0 0 0 0 0 0 0 0 0 0 0 0 29 0 0 0 0 0 0 0 0 0 0 37 0 0 0 0 0 0 0 0 
		34 0 0 0 0 0 0 0 0 33 0 0 0 0 0 0 0 0 0 0 0 0 0 0 0 0 0 0 0 0 0 0 0 0 0 0 0 0 
		35 0 0 0 0 0 33 0 0 32 0 0 0 0 0 0 0 0 0 0 0 0 0 0 0 0 24 0 0 0 28 0 0 0 0 0 0 0 
		36 0 30 0 0 0 0 0 0 0 0 0 0 0 0 0 0 0 0 0 0 34 0 0 0 0 0 0 0 0 39 0 0 0 0 0 0 0 
;
